========================================================== 
File name: C:\DEGR\assets\definitions\MSRCPSP_Gen\100_5_64_10_D.def
Creation date: Wed May 03 10:37:15 CEST 2023
Website: http://imopse.ii.pwr.edu.pl/ 
Reference: 
Myszkowski P. B., Skowronski M. E., Olech L., Oslizlo K., 
Hybrid Ant Colony Optimization in solving Multi-Skill Resource-Constrained Project Scheduling Problem, 
Soft Computing, DOI: DOI 10.1007/s00500-014-1455-x 
========================================================== 
General characteristics: 
Tasks: 100
Resources: 5
Precedence relations: 63
Number of skill types: 10
========================================================== 
ResourceID 	 Salary 	 Skills 
1	 	 	11.3	 	 Q8: 1 	  Q3: 1 	 
2	 	 	82.1	 	 Q7: 2 	  Q5: 2 	  Q4: 3 	  Q3: 3 	 
3	 	 	53.9	 	 Q9: 1 	  Q8: 3 	  Q3: 3 	  Q1: 0 	  Q7: 0 	  Q4: 0 	  Q2: 2 	 
4	 	 	30.3	 	 Q0: 3 	  Q5: 3 	  Q4: 2 	 
5	 	 	22.7	 	 Q9: 2 	  Q0: 3 	  Q3: 2 	  Q2: 1 	  Q4: 2 	  Q5: 0 	  Q1: 1 	  Q8: 0 	  Q6: 2 	 
========================================================== 
TaskID 	 Duration 	 Skill 	 Predecessor IDs 
1	31	Q0:	3
2	33	Q4:	2
3	36	Q4:	3
4	30	Q8:	0
5	17	Q9:	1
6	14	Q2:	2
7	23	Q2:	1
8	29	Q3:	1
9	25	Q0:	3	1
10	21	Q2:	1
11	20	Q5:	2
12	28	Q8:	3
13	39	Q2:	1
14	31	Q2:	1
15	31	Q7:	0
16	12	Q3:	1
17	39	Q8:	1
18	38	Q9:	2
19	24	Q3:	2	14
20	31	Q9:	1
21	35	Q3:	3
22	8	Q6:	2
23	12	Q6:	2
24	37	Q0:	3
25	21	Q4:	3
26	36	Q4:	0	24
27	19	Q3:	2	15
28	12	Q5:	2
29	31	Q6:	2	7
30	40	Q4:	0
31	31	Q4:	2
32	19	Q4:	2	22	5	16
33	27	Q3:	3	7
34	16	Q8:	3	5
35	40	Q9:	1
36	36	Q3:	3	2
37	21	Q2:	2
38	23	Q5:	3
39	22	Q5:	0
40	13	Q8:	0
41	37	Q0:	3
42	37	Q5:	0
43	27	Q3:	2
44	16	Q2:	2	15
45	12	Q2:	1
46	21	Q8:	0	21
47	14	Q5:	2
48	27	Q0:	3	47
49	26	Q8:	0
50	39	Q2:	1
51	27	Q7:	0
52	16	Q9:	1
53	12	Q0:	3
54	18	Q2:	1
55	10	Q3:	2	15
56	18	Q1:	1	42
57	23	Q1:	0	43
58	32	Q8:	0	38
59	24	Q1:	0	52
60	34	Q6:	2	20
61	8	Q7:	2	38
62	37	Q9:	2	11	20	13
63	18	Q2:	2	15
64	40	Q8:	3	38
65	24	Q4:	2	56	61
66	25	Q0:	3	11
67	19	Q4:	0	27	37
68	38	Q5:	0
69	37	Q5:	2	52	11
70	29	Q8:	3	7
71	11	Q5:	3
72	28	Q9:	1	45	67
73	27	Q4:	3
74	36	Q7:	0	25
75	29	Q1:	1
76	20	Q7:	2	54
77	26	Q3:	2	18
78	26	Q6:	2
79	27	Q5:	2	10
80	16	Q2:	1
81	26	Q8:	0	42	79	56
82	38	Q8:	0
83	37	Q4:	3
84	34	Q3:	3
85	38	Q1:	1	15
86	26	Q4:	0
87	25	Q2:	2	3	29
88	18	Q8:	3	46	1
89	27	Q9:	1	22
90	16	Q6:	2	57
91	21	Q9:	2	23	14
92	37	Q4:	2
93	39	Q4:	2	5
94	26	Q4:	0	70	50	32
95	26	Q0:	3	43
96	24	Q4:	0	26	94
97	10	Q8:	0
98	21	Q2:	2	42
99	15	Q8:	0	17
100	40	Q1:	1	67	17
========================================================== 